out/bwp_8_10_1_lp.out
9
5 2    7 2
5 0    6 1
7 0    7 0
4 1    4 1
7 1    7 1
0 0    3 2
0 3    3 5
4 3    7 5
0 6    3 8
4 6    7 8
