out/bwp_8_10_1_lp.log
Tried aggregator 2 times.
MIP Presolve eliminated 14 rows and 5 columns.
MIP Presolve modified 192 coefficients.
Aggregator did 192 substitutions.
Reduced MIP has 1007 rows, 915 columns, and 2502 nonzeros.
Reduced MIP has 546 binaries, 21 generals, 0 SOSs, and 180 indicators.
Presolve time = 0.01 sec. (2.58 ticks)
Found incumbent of value 28.000000 after 0.02 sec. (6.73 ticks)
Probing fixed 39 vars, tightened 176 bounds.
Probing time = 0.03 sec. (7.96 ticks)
Tried aggregator 3 times.
MIP Presolve eliminated 61 rows and 61 columns.
MIP Presolve modified 410 coefficients.
Aggregator did 339 substitutions.
Reduced MIP has 607 rows, 515 columns, and 1808 nonzeros.
Reduced MIP has 404 binaries, 102 generals, 0 SOSs, and 154 indicators.
Presolve time = 0.01 sec. (4.22 ticks)
Probing time = 0.01 sec. (2.45 ticks)
Tried aggregator 1 time.
Reduced MIP has 607 rows, 515 columns, and 1808 nonzeros.
Reduced MIP has 404 binaries, 102 generals, 0 SOSs, and 154 indicators.
Presolve time = 0.00 sec. (0.96 ticks)
Probing time = 0.01 sec. (2.08 ticks)
Clique table members: 432.
MIP emphasis: balance optimality and feasibility.
MIP search method: dynamic search.
Parallel mode: deterministic, using up to 4 threads.
Root relaxation solution time = 0.00 sec. (1.56 ticks)

        Nodes                                         Cuts/
   Node  Left     Objective  IInf  Best Integer    Best Bound    ItCnt     Gap

*     0+    0                           28.0000        9.0000      204   67.86%
      0     0        9.0000   227       28.0000        9.0000      204   67.86%
      0     0        9.0000   139       28.0000      Cuts: 45      243   67.86%
      0     0        9.0000   167       28.0000     Cuts: 111      328   67.86%
      0     0        9.0000   123       28.0000       Cuts: 6      352   67.86%
      0     0        9.0000   134       28.0000      Cuts: 82      412   67.86%
*     0+    0                           22.0000        9.0000      412   59.09%
*     0+    0                           10.0000        9.0000      412   10.00%

Repeating presolve.
Tried aggregator 2 times.
MIP Presolve eliminated 248 rows and 200 columns.
MIP Presolve modified 282 coefficients.
Aggregator did 15 substitutions.
Reduced MIP has 398 rows, 300 columns, and 1163 nonzeros.
Reduced MIP has 205 binaries, 86 generals, 0 SOSs, and 100 indicators.
Presolve time = 0.00 sec. (1.72 ticks)
Probing fixed 0 vars, tightened 27 bounds.
Probing time = 0.00 sec. (1.13 ticks)
Tried aggregator 2 times.
MIP Presolve eliminated 54 rows and 0 columns.
MIP Presolve modified 49 coefficients.
Aggregator did 11 substitutions.
Reduced MIP has 378 rows, 289 columns, and 1124 nonzeros.
Reduced MIP has 205 binaries, 77 generals, 0 SOSs, and 55 indicators.
Presolve time = 0.00 sec. (0.89 ticks)
Probing time = 0.00 sec. (0.89 ticks)
Tried aggregator 2 times.
MIP Presolve eliminated 45 rows and 0 columns.
Aggregator did 16 substitutions.
Reduced MIP has 320 rows, 273 columns, and 1008 nonzeros.
Reduced MIP has 205 binaries, 61 generals, 0 SOSs, and 52 indicators.
Presolve time = 0.00 sec. (0.86 ticks)
Probing time = 0.00 sec. (0.70 ticks)
Tried aggregator 2 times.
MIP Presolve eliminated 3 rows and 0 columns.
Aggregator did 1 substitutions.
Reduced MIP has 316 rows, 272 columns, and 1000 nonzeros.
Reduced MIP has 205 binaries, 60 generals, 0 SOSs, and 52 indicators.
Presolve time = 0.00 sec. (0.70 ticks)
Represolve time = 0.03 sec. (8.28 ticks)
Probing time = 0.00 sec. (0.70 ticks)
Clique table members: 126.
MIP emphasis: balance optimality and feasibility.
MIP search method: dynamic search.
Parallel mode: deterministic, using up to 4 threads.
Root relaxation solution time = 0.00 sec. (0.86 ticks)

        Nodes                                         Cuts/
   Node  Left     Objective  IInf  Best Integer    Best Bound    ItCnt     Gap

*     0+    0                           10.0000        9.0000      520   10.00%
      0     0        9.0000   124       10.0000        9.0000      520   10.00%
      0     0        9.0000    29       10.0000       Cuts: 8      526   10.00%
      0     0        9.0000    20       10.0000      Cuts: 38      557   10.00%
      0     0        9.0000    30       10.0000      Cuts: 41      583   10.00%
      0     0        9.0000    32       10.0000      Cuts: 26      609   10.00%
*     0+    0                            9.0000        9.0000      609    0.00%
      0     0        cutoff              9.0000        9.0000      609    0.00%
Elapsed time = 0.33 sec. (115.73 ticks, tree = 0.00 MB, solutions = 4)

Clique cuts applied:  3
Cover cuts applied:  6
Implied bound cuts applied:  21
Mixed integer rounding cuts applied:  1
Zero-half cuts applied:  7
Gomory fractional cuts applied:  8

Root node processing (before b&c):
  Real time             =    0.33 sec. (115.77 ticks)
Parallel b&c, 4 threads:
  Real time             =    0.00 sec. (0.00 ticks)
  Sync time (average)   =    0.00 sec.
  Wait time (average)   =    0.00 sec.
                          ------------
Total (root+branch&cut) =    0.33 sec. (115.77 ticks)
